10
0, 87, 403, 305, 309, 387, 612, 251, 335, 600
87, 0, 487, 260, 231, 431, 683, 297, 333, 688
403, 487, 0, 677, 667, 525, 509, 453, 482, 227
305, 260, 677, 0, 374, 367, 684, 288, 587, 838
309, 231, 667, 374, 0, 650, 914, 521, 312, 885
387, 431, 525, 367, 650, 0, 322, 136, 716, 594
612, 683, 509, 684, 914, 322, 0, 409, 886, 441
251, 297, 453, 288, 521, 136, 409, 0, 582, 571
335, 333, 482, 587, 312, 716, 886, 582, 0, 708
600, 688, 227, 838, 885, 594, 441, 571, 708, 0
